c *********************************
c * Circuit generated by BenCGen
c *
c * CarrySaveAdder_57_57_57_57_58
c *
c * Ports with 1 gate(s): 2
c * Ports with 2 gate(s): 286
c * Total gates: 288
c *********************************
p cnf 459 976
1 288 0
-1 -288 0
1 -287 0
288 -287 0
-1 -288 287 0
287 -229 0
-287 229 0
1 58 -289 0
-1 58 289 0
1 -58 289 0
-1 -58 -289 0
289 115 -172 0
-289 115 172 0
289 -115 172 0
-289 -115 -172 0
115 -290 0
289 -290 0
-115 -289 290 0
58 -291 0
1 -291 0
-58 -1 291 0
-290 230 0
-291 230 0
290 291 -230 0
2 59 -292 0
-2 59 292 0
2 -59 292 0
-2 -59 -292 0
292 116 -173 0
-292 116 173 0
292 -116 173 0
-292 -116 -173 0
116 -293 0
292 -293 0
-116 -292 293 0
59 -294 0
2 -294 0
-59 -2 294 0
-293 231 0
-294 231 0
293 294 -231 0
3 60 -295 0
-3 60 295 0
3 -60 295 0
-3 -60 -295 0
295 117 -174 0
-295 117 174 0
295 -117 174 0
-295 -117 -174 0
117 -296 0
295 -296 0
-117 -295 296 0
60 -297 0
3 -297 0
-60 -3 297 0
-296 232 0
-297 232 0
296 297 -232 0
4 61 -298 0
-4 61 298 0
4 -61 298 0
-4 -61 -298 0
298 118 -175 0
-298 118 175 0
298 -118 175 0
-298 -118 -175 0
118 -299 0
298 -299 0
-118 -298 299 0
61 -300 0
4 -300 0
-61 -4 300 0
-299 233 0
-300 233 0
299 300 -233 0
5 62 -301 0
-5 62 301 0
5 -62 301 0
-5 -62 -301 0
301 119 -176 0
-301 119 176 0
301 -119 176 0
-301 -119 -176 0
119 -302 0
301 -302 0
-119 -301 302 0
62 -303 0
5 -303 0
-62 -5 303 0
-302 234 0
-303 234 0
302 303 -234 0
6 63 -304 0
-6 63 304 0
6 -63 304 0
-6 -63 -304 0
304 120 -177 0
-304 120 177 0
304 -120 177 0
-304 -120 -177 0
120 -305 0
304 -305 0
-120 -304 305 0
63 -306 0
6 -306 0
-63 -6 306 0
-305 235 0
-306 235 0
305 306 -235 0
7 64 -307 0
-7 64 307 0
7 -64 307 0
-7 -64 -307 0
307 121 -178 0
-307 121 178 0
307 -121 178 0
-307 -121 -178 0
121 -308 0
307 -308 0
-121 -307 308 0
64 -309 0
7 -309 0
-64 -7 309 0
-308 236 0
-309 236 0
308 309 -236 0
8 65 -310 0
-8 65 310 0
8 -65 310 0
-8 -65 -310 0
310 122 -179 0
-310 122 179 0
310 -122 179 0
-310 -122 -179 0
122 -311 0
310 -311 0
-122 -310 311 0
65 -312 0
8 -312 0
-65 -8 312 0
-311 237 0
-312 237 0
311 312 -237 0
9 66 -313 0
-9 66 313 0
9 -66 313 0
-9 -66 -313 0
313 123 -180 0
-313 123 180 0
313 -123 180 0
-313 -123 -180 0
123 -314 0
313 -314 0
-123 -313 314 0
66 -315 0
9 -315 0
-66 -9 315 0
-314 238 0
-315 238 0
314 315 -238 0
10 67 -316 0
-10 67 316 0
10 -67 316 0
-10 -67 -316 0
316 124 -181 0
-316 124 181 0
316 -124 181 0
-316 -124 -181 0
124 -317 0
316 -317 0
-124 -316 317 0
67 -318 0
10 -318 0
-67 -10 318 0
-317 239 0
-318 239 0
317 318 -239 0
11 68 -319 0
-11 68 319 0
11 -68 319 0
-11 -68 -319 0
319 125 -182 0
-319 125 182 0
319 -125 182 0
-319 -125 -182 0
125 -320 0
319 -320 0
-125 -319 320 0
68 -321 0
11 -321 0
-68 -11 321 0
-320 240 0
-321 240 0
320 321 -240 0
12 69 -322 0
-12 69 322 0
12 -69 322 0
-12 -69 -322 0
322 126 -183 0
-322 126 183 0
322 -126 183 0
-322 -126 -183 0
126 -323 0
322 -323 0
-126 -322 323 0
69 -324 0
12 -324 0
-69 -12 324 0
-323 241 0
-324 241 0
323 324 -241 0
13 70 -325 0
-13 70 325 0
13 -70 325 0
-13 -70 -325 0
325 127 -184 0
-325 127 184 0
325 -127 184 0
-325 -127 -184 0
127 -326 0
325 -326 0
-127 -325 326 0
70 -327 0
13 -327 0
-70 -13 327 0
-326 242 0
-327 242 0
326 327 -242 0
14 71 -328 0
-14 71 328 0
14 -71 328 0
-14 -71 -328 0
328 128 -185 0
-328 128 185 0
328 -128 185 0
-328 -128 -185 0
128 -329 0
328 -329 0
-128 -328 329 0
71 -330 0
14 -330 0
-71 -14 330 0
-329 243 0
-330 243 0
329 330 -243 0
15 72 -331 0
-15 72 331 0
15 -72 331 0
-15 -72 -331 0
331 129 -186 0
-331 129 186 0
331 -129 186 0
-331 -129 -186 0
129 -332 0
331 -332 0
-129 -331 332 0
72 -333 0
15 -333 0
-72 -15 333 0
-332 244 0
-333 244 0
332 333 -244 0
16 73 -334 0
-16 73 334 0
16 -73 334 0
-16 -73 -334 0
334 130 -187 0
-334 130 187 0
334 -130 187 0
-334 -130 -187 0
130 -335 0
334 -335 0
-130 -334 335 0
73 -336 0
16 -336 0
-73 -16 336 0
-335 245 0
-336 245 0
335 336 -245 0
17 74 -337 0
-17 74 337 0
17 -74 337 0
-17 -74 -337 0
337 131 -188 0
-337 131 188 0
337 -131 188 0
-337 -131 -188 0
131 -338 0
337 -338 0
-131 -337 338 0
74 -339 0
17 -339 0
-74 -17 339 0
-338 246 0
-339 246 0
338 339 -246 0
18 75 -340 0
-18 75 340 0
18 -75 340 0
-18 -75 -340 0
340 132 -189 0
-340 132 189 0
340 -132 189 0
-340 -132 -189 0
132 -341 0
340 -341 0
-132 -340 341 0
75 -342 0
18 -342 0
-75 -18 342 0
-341 247 0
-342 247 0
341 342 -247 0
19 76 -343 0
-19 76 343 0
19 -76 343 0
-19 -76 -343 0
343 133 -190 0
-343 133 190 0
343 -133 190 0
-343 -133 -190 0
133 -344 0
343 -344 0
-133 -343 344 0
76 -345 0
19 -345 0
-76 -19 345 0
-344 248 0
-345 248 0
344 345 -248 0
20 77 -346 0
-20 77 346 0
20 -77 346 0
-20 -77 -346 0
346 134 -191 0
-346 134 191 0
346 -134 191 0
-346 -134 -191 0
134 -347 0
346 -347 0
-134 -346 347 0
77 -348 0
20 -348 0
-77 -20 348 0
-347 249 0
-348 249 0
347 348 -249 0
21 78 -349 0
-21 78 349 0
21 -78 349 0
-21 -78 -349 0
349 135 -192 0
-349 135 192 0
349 -135 192 0
-349 -135 -192 0
135 -350 0
349 -350 0
-135 -349 350 0
78 -351 0
21 -351 0
-78 -21 351 0
-350 250 0
-351 250 0
350 351 -250 0
22 79 -352 0
-22 79 352 0
22 -79 352 0
-22 -79 -352 0
352 136 -193 0
-352 136 193 0
352 -136 193 0
-352 -136 -193 0
136 -353 0
352 -353 0
-136 -352 353 0
79 -354 0
22 -354 0
-79 -22 354 0
-353 251 0
-354 251 0
353 354 -251 0
23 80 -355 0
-23 80 355 0
23 -80 355 0
-23 -80 -355 0
355 137 -194 0
-355 137 194 0
355 -137 194 0
-355 -137 -194 0
137 -356 0
355 -356 0
-137 -355 356 0
80 -357 0
23 -357 0
-80 -23 357 0
-356 252 0
-357 252 0
356 357 -252 0
24 81 -358 0
-24 81 358 0
24 -81 358 0
-24 -81 -358 0
358 138 -195 0
-358 138 195 0
358 -138 195 0
-358 -138 -195 0
138 -359 0
358 -359 0
-138 -358 359 0
81 -360 0
24 -360 0
-81 -24 360 0
-359 253 0
-360 253 0
359 360 -253 0
25 82 -361 0
-25 82 361 0
25 -82 361 0
-25 -82 -361 0
361 139 -196 0
-361 139 196 0
361 -139 196 0
-361 -139 -196 0
139 -362 0
361 -362 0
-139 -361 362 0
82 -363 0
25 -363 0
-82 -25 363 0
-362 254 0
-363 254 0
362 363 -254 0
26 83 -364 0
-26 83 364 0
26 -83 364 0
-26 -83 -364 0
364 140 -197 0
-364 140 197 0
364 -140 197 0
-364 -140 -197 0
140 -365 0
364 -365 0
-140 -364 365 0
83 -366 0
26 -366 0
-83 -26 366 0
-365 255 0
-366 255 0
365 366 -255 0
27 84 -367 0
-27 84 367 0
27 -84 367 0
-27 -84 -367 0
367 141 -198 0
-367 141 198 0
367 -141 198 0
-367 -141 -198 0
141 -368 0
367 -368 0
-141 -367 368 0
84 -369 0
27 -369 0
-84 -27 369 0
-368 256 0
-369 256 0
368 369 -256 0
28 85 -370 0
-28 85 370 0
28 -85 370 0
-28 -85 -370 0
370 142 -199 0
-370 142 199 0
370 -142 199 0
-370 -142 -199 0
142 -371 0
370 -371 0
-142 -370 371 0
85 -372 0
28 -372 0
-85 -28 372 0
-371 257 0
-372 257 0
371 372 -257 0
29 86 -373 0
-29 86 373 0
29 -86 373 0
-29 -86 -373 0
373 143 -200 0
-373 143 200 0
373 -143 200 0
-373 -143 -200 0
143 -374 0
373 -374 0
-143 -373 374 0
86 -375 0
29 -375 0
-86 -29 375 0
-374 258 0
-375 258 0
374 375 -258 0
30 87 -376 0
-30 87 376 0
30 -87 376 0
-30 -87 -376 0
376 144 -201 0
-376 144 201 0
376 -144 201 0
-376 -144 -201 0
144 -377 0
376 -377 0
-144 -376 377 0
87 -378 0
30 -378 0
-87 -30 378 0
-377 259 0
-378 259 0
377 378 -259 0
31 88 -379 0
-31 88 379 0
31 -88 379 0
-31 -88 -379 0
379 145 -202 0
-379 145 202 0
379 -145 202 0
-379 -145 -202 0
145 -380 0
379 -380 0
-145 -379 380 0
88 -381 0
31 -381 0
-88 -31 381 0
-380 260 0
-381 260 0
380 381 -260 0
32 89 -382 0
-32 89 382 0
32 -89 382 0
-32 -89 -382 0
382 146 -203 0
-382 146 203 0
382 -146 203 0
-382 -146 -203 0
146 -383 0
382 -383 0
-146 -382 383 0
89 -384 0
32 -384 0
-89 -32 384 0
-383 261 0
-384 261 0
383 384 -261 0
33 90 -385 0
-33 90 385 0
33 -90 385 0
-33 -90 -385 0
385 147 -204 0
-385 147 204 0
385 -147 204 0
-385 -147 -204 0
147 -386 0
385 -386 0
-147 -385 386 0
90 -387 0
33 -387 0
-90 -33 387 0
-386 262 0
-387 262 0
386 387 -262 0
34 91 -388 0
-34 91 388 0
34 -91 388 0
-34 -91 -388 0
388 148 -205 0
-388 148 205 0
388 -148 205 0
-388 -148 -205 0
148 -389 0
388 -389 0
-148 -388 389 0
91 -390 0
34 -390 0
-91 -34 390 0
-389 263 0
-390 263 0
389 390 -263 0
35 92 -391 0
-35 92 391 0
35 -92 391 0
-35 -92 -391 0
391 149 -206 0
-391 149 206 0
391 -149 206 0
-391 -149 -206 0
149 -392 0
391 -392 0
-149 -391 392 0
92 -393 0
35 -393 0
-92 -35 393 0
-392 264 0
-393 264 0
392 393 -264 0
36 93 -394 0
-36 93 394 0
36 -93 394 0
-36 -93 -394 0
394 150 -207 0
-394 150 207 0
394 -150 207 0
-394 -150 -207 0
150 -395 0
394 -395 0
-150 -394 395 0
93 -396 0
36 -396 0
-93 -36 396 0
-395 265 0
-396 265 0
395 396 -265 0
37 94 -397 0
-37 94 397 0
37 -94 397 0
-37 -94 -397 0
397 151 -208 0
-397 151 208 0
397 -151 208 0
-397 -151 -208 0
151 -398 0
397 -398 0
-151 -397 398 0
94 -399 0
37 -399 0
-94 -37 399 0
-398 266 0
-399 266 0
398 399 -266 0
38 95 -400 0
-38 95 400 0
38 -95 400 0
-38 -95 -400 0
400 152 -209 0
-400 152 209 0
400 -152 209 0
-400 -152 -209 0
152 -401 0
400 -401 0
-152 -400 401 0
95 -402 0
38 -402 0
-95 -38 402 0
-401 267 0
-402 267 0
401 402 -267 0
39 96 -403 0
-39 96 403 0
39 -96 403 0
-39 -96 -403 0
403 153 -210 0
-403 153 210 0
403 -153 210 0
-403 -153 -210 0
153 -404 0
403 -404 0
-153 -403 404 0
96 -405 0
39 -405 0
-96 -39 405 0
-404 268 0
-405 268 0
404 405 -268 0
40 97 -406 0
-40 97 406 0
40 -97 406 0
-40 -97 -406 0
406 154 -211 0
-406 154 211 0
406 -154 211 0
-406 -154 -211 0
154 -407 0
406 -407 0
-154 -406 407 0
97 -408 0
40 -408 0
-97 -40 408 0
-407 269 0
-408 269 0
407 408 -269 0
41 98 -409 0
-41 98 409 0
41 -98 409 0
-41 -98 -409 0
409 155 -212 0
-409 155 212 0
409 -155 212 0
-409 -155 -212 0
155 -410 0
409 -410 0
-155 -409 410 0
98 -411 0
41 -411 0
-98 -41 411 0
-410 270 0
-411 270 0
410 411 -270 0
42 99 -412 0
-42 99 412 0
42 -99 412 0
-42 -99 -412 0
412 156 -213 0
-412 156 213 0
412 -156 213 0
-412 -156 -213 0
156 -413 0
412 -413 0
-156 -412 413 0
99 -414 0
42 -414 0
-99 -42 414 0
-413 271 0
-414 271 0
413 414 -271 0
43 100 -415 0
-43 100 415 0
43 -100 415 0
-43 -100 -415 0
415 157 -214 0
-415 157 214 0
415 -157 214 0
-415 -157 -214 0
157 -416 0
415 -416 0
-157 -415 416 0
100 -417 0
43 -417 0
-100 -43 417 0
-416 272 0
-417 272 0
416 417 -272 0
44 101 -418 0
-44 101 418 0
44 -101 418 0
-44 -101 -418 0
418 158 -215 0
-418 158 215 0
418 -158 215 0
-418 -158 -215 0
158 -419 0
418 -419 0
-158 -418 419 0
101 -420 0
44 -420 0
-101 -44 420 0
-419 273 0
-420 273 0
419 420 -273 0
45 102 -421 0
-45 102 421 0
45 -102 421 0
-45 -102 -421 0
421 159 -216 0
-421 159 216 0
421 -159 216 0
-421 -159 -216 0
159 -422 0
421 -422 0
-159 -421 422 0
102 -423 0
45 -423 0
-102 -45 423 0
-422 274 0
-423 274 0
422 423 -274 0
46 103 -424 0
-46 103 424 0
46 -103 424 0
-46 -103 -424 0
424 160 -217 0
-424 160 217 0
424 -160 217 0
-424 -160 -217 0
160 -425 0
424 -425 0
-160 -424 425 0
103 -426 0
46 -426 0
-103 -46 426 0
-425 275 0
-426 275 0
425 426 -275 0
47 104 -427 0
-47 104 427 0
47 -104 427 0
-47 -104 -427 0
427 161 -218 0
-427 161 218 0
427 -161 218 0
-427 -161 -218 0
161 -428 0
427 -428 0
-161 -427 428 0
104 -429 0
47 -429 0
-104 -47 429 0
-428 276 0
-429 276 0
428 429 -276 0
48 105 -430 0
-48 105 430 0
48 -105 430 0
-48 -105 -430 0
430 162 -219 0
-430 162 219 0
430 -162 219 0
-430 -162 -219 0
162 -431 0
430 -431 0
-162 -430 431 0
105 -432 0
48 -432 0
-105 -48 432 0
-431 277 0
-432 277 0
431 432 -277 0
49 106 -433 0
-49 106 433 0
49 -106 433 0
-49 -106 -433 0
433 163 -220 0
-433 163 220 0
433 -163 220 0
-433 -163 -220 0
163 -434 0
433 -434 0
-163 -433 434 0
106 -435 0
49 -435 0
-106 -49 435 0
-434 278 0
-435 278 0
434 435 -278 0
50 107 -436 0
-50 107 436 0
50 -107 436 0
-50 -107 -436 0
436 164 -221 0
-436 164 221 0
436 -164 221 0
-436 -164 -221 0
164 -437 0
436 -437 0
-164 -436 437 0
107 -438 0
50 -438 0
-107 -50 438 0
-437 279 0
-438 279 0
437 438 -279 0
51 108 -439 0
-51 108 439 0
51 -108 439 0
-51 -108 -439 0
439 165 -222 0
-439 165 222 0
439 -165 222 0
-439 -165 -222 0
165 -440 0
439 -440 0
-165 -439 440 0
108 -441 0
51 -441 0
-108 -51 441 0
-440 280 0
-441 280 0
440 441 -280 0
52 109 -442 0
-52 109 442 0
52 -109 442 0
-52 -109 -442 0
442 166 -223 0
-442 166 223 0
442 -166 223 0
-442 -166 -223 0
166 -443 0
442 -443 0
-166 -442 443 0
109 -444 0
52 -444 0
-109 -52 444 0
-443 281 0
-444 281 0
443 444 -281 0
53 110 -445 0
-53 110 445 0
53 -110 445 0
-53 -110 -445 0
445 167 -224 0
-445 167 224 0
445 -167 224 0
-445 -167 -224 0
167 -446 0
445 -446 0
-167 -445 446 0
110 -447 0
53 -447 0
-110 -53 447 0
-446 282 0
-447 282 0
446 447 -282 0
54 111 -448 0
-54 111 448 0
54 -111 448 0
-54 -111 -448 0
448 168 -225 0
-448 168 225 0
448 -168 225 0
-448 -168 -225 0
168 -449 0
448 -449 0
-168 -448 449 0
111 -450 0
54 -450 0
-111 -54 450 0
-449 283 0
-450 283 0
449 450 -283 0
55 112 -451 0
-55 112 451 0
55 -112 451 0
-55 -112 -451 0
451 169 -226 0
-451 169 226 0
451 -169 226 0
-451 -169 -226 0
169 -452 0
451 -452 0
-169 -451 452 0
112 -453 0
55 -453 0
-112 -55 453 0
-452 284 0
-453 284 0
452 453 -284 0
56 113 -454 0
-56 113 454 0
56 -113 454 0
-56 -113 -454 0
454 170 -227 0
-454 170 227 0
454 -170 227 0
-454 -170 -227 0
170 -455 0
454 -455 0
-170 -454 455 0
113 -456 0
56 -456 0
-113 -56 456 0
-455 285 0
-456 285 0
455 456 -285 0
57 114 -457 0
-57 114 457 0
57 -114 457 0
-57 -114 -457 0
457 171 -228 0
-457 171 228 0
457 -171 228 0
-457 -171 -228 0
171 -458 0
457 -458 0
-171 -457 458 0
114 -459 0
57 -459 0
-114 -57 459 0
-458 286 0
-459 286 0
458 459 -286 0
